
List of user-set options:

                                    Name   Value                used
                           compl_inf_tol = 1                     yes
                         constr_viol_tol = 1                     yes
                            dual_inf_tol = 1000                  yes
                           linear_solver = ma97                  yes
                              ma86_small = 1e-30                  no
                                  ma86_u = 0.0001                 no
                              ma97_order = best                  yes
                              ma97_small = 1e-30                 yes
                            ma97_switch1 = at_start              yes
                            ma97_switch2 = od_hd_reuse           yes
                                  ma97_u = 1e-06                 yes
                               ma97_umax = 0.5                   yes
                                max_iter = 1000                  yes
                    max_refinement_steps = 20                    yes
                    min_refinement_steps = 5                     yes
                                 mu_init = 1e-06                 yes
           mu_superlinear_decrease_power = 1.25                  yes
                   nlp_scaling_min_value = 1e-08                 yes
                        option_file_name = Preset_Case_393_pf.opt  yes
                             output_file = ./tmp/Preset_Case_393_pf.output  yes
                      print_user_options = yes                   yes
                                     tol = 1e-08                 yes
                   warm_start_bound_frac = 1e-20                 yes
                   warm_start_bound_push = 1e-20                 yes
                   warm_start_init_point = yes                   yes
              warm_start_mult_bound_push = 1e-20                 yes
                warm_start_mult_init_max = 1e+40                 yes
             warm_start_slack_bound_frac = 1e-20                 yes
             warm_start_slack_bound_push = 1e-20                 yes

******************************************************************************
This program contains Ipopt, a library for large-scale nonlinear optimization.
 Ipopt is released as open source code under the Eclipse Public License (EPL).
         For more information visit http://projects.coin-or.org/Ipopt
******************************************************************************

This is Ipopt version 3.12.10, running with linear solver ma97.

Number of nonzeros in equality constraint Jacobian...:    95954
Number of nonzeros in inequality constraint Jacobian.:      140
Number of nonzeros in Lagrangian Hessian.............:    37180

Total number of variables............................:    26918
                     variables with only lower bounds:    10820
                variables with lower and upper bounds:    12660
                     variables with only upper bounds:        0
Total number of equality constraints.................:    26838
Total number of inequality constraints...............:       20
        inequality constraints with only lower bounds:        0
   inequality constraints with lower and upper bounds:        0
        inequality constraints with only upper bounds:       20

iter    objective    inf_pr   inf_du lg(mu)  ||d||  lg(rg) alpha_du alpha_pr  ls
   0 -9.8630000e+03 3.74e+02 5.30e-07  -6.0 0.00e+00    -  0.00e+00 0.00e+00   0
   1 -9.8630000e+03 3.73e+02 2.24e+02  -6.0 3.74e+02    -  1.00e+00 2.17e-03h  1
   2 -9.8630001e+03 6.22e+01 1.32e+05  -6.0 3.73e+02    -  2.17e-03 8.33e-01h  1
   3 -9.8630001e+03 8.65e-11 2.63e+04  -6.0 6.22e+01    -  8.36e-01 1.00e+00h  1
   4 -9.8630001e+03 1.38e-10 5.03e-08  -6.0 2.07e-07    -  1.00e+00 1.00e+00h  1
   5 -9.8630001e+03 1.60e-10 1.33e-06  -7.5 1.32e-04    -  1.00e+00 1.00e+00h  1
   6 -9.8630001e+03 2.77e-10 3.73e-10  -7.5 5.86e-09    -  1.00e+00 1.00e+00h  1
   7 -9.8630001e+03 4.21e-11 1.35e-09  -9.0 4.19e-06    -  1.00e+00 1.00e+00h  1

Number of Iterations....: 7

                                   (scaled)                 (unscaled)
Objective...............:  -9.8630000987937492e+03   -9.8630000987937492e+03
Dual infeasibility......:   1.3463622439147116e-09    1.3463622439147116e-09
Constraint violation....:   4.2075943423869333e-11    4.2075943423869333e-11
Complementarity.........:   9.1107539701860884e-10    9.1107539701860884e-10
Overall NLP error.......:   1.3463622439147116e-09    1.3463622439147116e-09


Number of objective function evaluations             = 8
Number of objective gradient evaluations             = 8
Number of equality constraint evaluations            = 8
Number of inequality constraint evaluations          = 8
Number of equality constraint Jacobian evaluations   = 8
Number of inequality constraint Jacobian evaluations = 8
Number of Lagrangian Hessian evaluations             = 7
Total CPU secs in IPOPT (w/o function evaluations)   =      5.172
Total CPU secs in NLP function evaluations           =      0.384

EXIT: Optimal Solution Found.
